NAME : kroD100-C-3-0-a.23809.tour
COMMENT : Length = 23809
COMMENT : Found by LKH-3 [Keld Helsgaun] Tue Jul 30 13:14:12 2024
TYPE : TOUR
DIMENSION : 100
TOUR_SECTION
1
41
84
73
15
69
46
61
74
36
67
75
7
72
57
76
80
78
31
99
45
33
68
14
65
86
96
16
63
54
91
77
64
85
18
82
47
12
28
21
56
95
26
87
55
9
10
20
25
6
59
40
83
3
5
92
48
2
100
30
35
51
19
37
62
53
60
44
93
4
71
43
39
79
13
88
24
27
81
34
38
66
52
8
23
42
29
58
22
70
49
98
97
32
94
17
90
89
11
50
-1
EOF
